
Gurobi 9.0.1 (linux64) logging started Thu Apr 30 06:11:46 2020

Gurobi Optimizer version 9.0.1 build v9.0.1rc0 (linux64)
Optimize a model with 2138 rows, 2120 columns and 19920 nonzeros
Model fingerprint: 0xc8e8a6dc
Variable types: 0 continuous, 2120 integer (2106 binary)
Coefficient statistics:
  Matrix range     [1e+00, 7e+00]
  Objective range  [2e+00, 1e+02]
  Bounds range     [1e+00, 1e+00]
  RHS range        [1e+00, 1e+00]

User MIP start produced solution with objective 752 (0.01s)
Loaded user MIP start with objective 752

Presolve removed 800 rows and 816 columns
Presolve time: 0.13s
Presolved: 1338 rows, 1304 columns, 14312 nonzeros
Variable types: 0 continuous, 1304 integer (1292 binary)

Root relaxation: objective 5.229642e+02, 966 iterations, 0.09 seconds

    Nodes    |    Current Node    |     Objective Bounds      |     Work
 Expl Unexpl |  Obj  Depth IntInf | Incumbent    BestBd   Gap | It/Node Time

     0     0  522.96417    0  318  752.00000  522.96417  30.5%     -    0s
     0     0  534.82357    0  349  752.00000  534.82357  28.9%     -    0s
     0     0  535.15148    0  345  752.00000  535.15148  28.8%     -    0s
     0     0  542.15269    0  387  752.00000  542.15269  27.9%     -    0s
     0     0  542.35645    0  377  752.00000  542.35645  27.9%     -    1s
     0     0  542.39748    0  374  752.00000  542.39748  27.9%     -    1s
     0     0  542.41128    0  382  752.00000  542.41128  27.9%     -    1s
     0     0  542.41128    0  383  752.00000  542.41128  27.9%     -    1s
     0     0  546.63209    0  397  752.00000  546.63209  27.3%     -    1s
     0     0  546.88032    0  380  752.00000  546.88032  27.3%     -    1s
     0     0  546.92676    0  401  752.00000  546.92676  27.3%     -    1s
     0     0  546.96345    0  400  752.00000  546.96345  27.3%     -    1s
     0     0  546.97015    0  401  752.00000  546.97015  27.3%     -    1s
     0     0  549.76640    0  348  752.00000  549.76640  26.9%     -    2s
     0     0  550.17058    0  367  752.00000  550.17058  26.8%     -    2s
     0     0  550.24227    0  363  752.00000  550.24227  26.8%     -    2s
     0     0  550.30469    0  363  752.00000  550.30469  26.8%     -    2s
     0     0  550.32155    0  361  752.00000  550.32155  26.8%     -    2s
     0     0  550.32238    0  361  752.00000  550.32238  26.8%     -    2s
     0     0  551.55884    0  365  752.00000  551.55884  26.7%     -    2s
     0     0  551.67010    0  367  752.00000  551.67010  26.6%     -    2s
     0     0  551.67758    0  378  752.00000  551.67758  26.6%     -    2s
     0     0  552.46720    0  384  752.00000  552.46720  26.5%     -    2s
     0     0  552.53633    0  386  752.00000  552.53633  26.5%     -    3s
     0     0  552.55978    0  386  752.00000  552.55978  26.5%     -    3s
     0     0  552.56260    0  388  752.00000  552.56260  26.5%     -    3s
     0     0  553.15113    0  379  752.00000  553.15113  26.4%     -    3s
     0     0  553.22120    0  390  752.00000  553.22120  26.4%     -    3s
     0     0  553.24314    0  391  752.00000  553.24314  26.4%     -    3s
     0     0  553.24562    0  393  752.00000  553.24562  26.4%     -    3s
     0     0  553.67138    0  381  752.00000  553.67138  26.4%     -    3s
     0     0  553.76197    0  385  752.00000  553.76197  26.4%     -    3s
     0     0  553.79831    0  388  752.00000  553.79831  26.4%     -    3s
     0     0  553.80925    0  392  752.00000  553.80925  26.4%     -    3s
     0     0  554.67015    0  390  752.00000  554.67015  26.2%     -    3s
     0     0  554.74904    0  389  752.00000  554.74904  26.2%     -    3s
     0     0  554.79083    0  393  752.00000  554.79083  26.2%     -    3s
     0     0  554.80127    0  395  752.00000  554.80127  26.2%     -    3s
     0     0  555.64843    0  401  752.00000  555.64843  26.1%     -    3s
     0     0  555.77254    0  405  752.00000  555.77254  26.1%     -    4s
     0     0  555.77807    0  405  752.00000  555.77807  26.1%     -    4s
     0     0  555.91525    0  415  752.00000  555.91525  26.1%     -    4s
     0     0  555.93828    0  419  752.00000  555.93828  26.1%     -    4s
     0     0  555.94385    0  416  752.00000  555.94385  26.1%     -    4s
     0     0  556.07199    0  417  752.00000  556.07199  26.1%     -    4s
     0     0  556.07199    0  417  752.00000  556.07199  26.1%     -    4s
     0     2  556.11175    0  414  752.00000  556.11175  26.0%     -    4s
     1     3  572.95775    1  356  752.00000  556.11175  26.0%  1123    5s
H   54    54                     735.0000000  562.69500  23.4%   422    9s
    64    66  702.85118   40  202  735.00000  562.69500  23.4%   402   10s
H   82    76                     717.0000000  562.69500  21.5%   364   10s
H   88    70                     705.0000000  562.69500  20.2%   345   11s
H  172   134                     693.0000000  567.15717  18.2%   313   14s
   190   146  592.53151    7  268  693.00000  568.16794  18.0%   303   15s
H  203   155                     691.0000000  568.16794  17.8%   302   15s
H  217   167                     689.0000000  568.16794  17.5%   299   16s
   320   245  655.29566   22  261  689.00000  572.20728  17.0%   280   20s
H  437   114                     633.0000000  578.19379  8.66%   255   24s
   465   120  585.37197    3  341  633.00000  578.32542  8.64%   252   25s
   518   152  591.34638   16  399  633.00000  580.56850  8.28%   255   30s
   531   162  580.56850   16  412  633.00000  580.56850  8.28%   261   35s
   542   170  580.56850   22  378  633.00000  580.56850  8.28%   267   40s
   628   182  594.85220   23  346  633.00000  580.56850  8.28%   268   45s
   691   199  618.31025   29  296  633.00000  580.56850  8.28%   281   50s
   833   197  600.56136   28  287  633.00000  580.56850  8.28%   270   55s
H  887   165                     628.0000000  580.56850  7.55%   261   56s
   995   176  623.02645   35  183  628.00000  580.56850  7.55%   256   60s
H 1157   208                     626.0000000  580.56850  7.26%   241   64s
  1161   212  594.40132   24  275  626.00000  580.64902  7.24%   242   65s
  1315   227  620.56983   31  285  626.00000  582.02105  7.03%   236   70s
  1438   246     cutoff   37       626.00000  584.36329  6.65%   234   75s
  1653   265  615.20000   28  253  626.00000  588.18302  6.04%   223   80s
  1829   281  597.09638   30  318  626.00000  590.11192  5.73%   218   85s
  1987   286  614.75067   33  221  626.00000  592.54388  5.34%   215   90s
  2194   279     cutoff   39       626.00000  596.04121  4.79%   209   95s
  2427   271  616.59519   27  301  626.00000  599.28133  4.27%   204  100s
  2613   264  617.81705   34  267  626.00000  602.97218  3.68%   202  105s
  2799   248  617.67593   29  319  626.00000  605.40924  3.29%   200  110s
  2958   216  618.67428   36  220  626.00000  608.88902  2.73%   199  115s
  3262   115  619.72721   28  265  626.00000  615.24390  1.72%   191  120s

Cutting planes:
  MIR: 32
  StrongCG: 1
  Flow cover: 45
  Inf proof: 19
  Zero half: 65
  RLT: 254

Explored 3515 nodes (646098 simplex iterations) in 122.38 seconds
Thread count was 1 (of 40 available processors)

Solution count 10: 626 628 633 ... 752

Optimal solution found (tolerance 1.00e-04)
Best objective 6.260000000000e+02, best bound 6.260000000000e+02, gap 0.0000%

User-callback calls 19931, time in user-callback 0.02 sec
